research/certificates/n4_2x5_k5.cnf
p cnf 92 235
1 2 3 4 5 0
1 6 0
-1 11 0
-11 12 0
-2 -11 13 0
-13 14 0
-3 -13 15 0
-15 16 0
-4 -15 17 0
-17 18 0
-5 -17 19 0
-19 20 0
-6 -19 0
-2 12 0
-12 21 0
-3 -12 14 0
-14 22 0
-4 -14 16 0
-16 23 0
-5 -16 18 0
-18 24 0
-6 -18 20 0
-20 25 0
-7 -20 0
-3 21 0
-21 26 0
-4 -21 22 0
-22 27 0
-5 -22 23 0
-23 28 0
-6 -23 24 0
-24 29 0
-7 -24 25 0
-25 30 0
-8 -25 0
-4 26 0
-26 31 0
-5 -26 27 0
-27 32 0
-6 -27 28 0
-28 33 0
-7 -28 29 0
-29 34 0
-8 -29 30 0
-30 35 0
-9 -30 0
-5 31 0
-6 -31 32 0
-7 -32 33 0
-8 -33 34 0
-9 -34 35 0
-10 -35 0
1 36 0
-36 37 0
2 -36 38 0
-38 39 0
3 -38 40 0
-40 41 0
4 -40 42 0
-42 43 0
5 -42 44 0
-44 45 0
6 -44 0
2 37 0
-37 46 0
3 -37 39 0
-39 47 0
4 -39 41 0
-41 48 0
5 -41 43 0
-43 49 0
6 -43 45 0
-45 50 0
7 -45 0
3 46 0
-46 51 0
4 -46 47 0
-47 52 0
5 -47 48 0
-48 53 0
6 -48 49 0
-49 54 0
7 -49 50 0
-50 55 0
8 -50 0
4 51 0
-51 56 0
5 -51 52 0
-52 57 0
6 -52 53 0
-53 58 0
7 -53 54 0
-54 59 0
8 -54 55 0
-55 60 0
9 -55 0
5 56 0
6 -56 57 0
7 -57 58 0
8 -58 59 0
9 -59 60 0
10 -60 0
-61 1 0
-61 2 0
-61 6 0
-61 7 0
-62 2 0
-62 3 0
-62 7 0
-62 8 0
-63 3 0
-63 4 0
-63 8 0
-63 9 0
-64 4 0
-64 5 0
-64 9 0
-64 10 0
61 62 63 64 0
-65 1 0
-65 2 0
-65 3 0
-65 4 0
-66 2 0
-66 3 0
-66 4 0
-66 5 0
-67 6 0
-67 7 0
-67 8 0
-67 9 0
-68 7 0
-68 8 0
-68 9 0
-68 10 0
65 66 67 68 0
-69 1 0
-69 2 0
-69 3 0
-69 7 0
-70 2 0
-70 3 0
-70 4 0
-70 8 0
-71 3 0
-71 4 0
-71 5 0
-71 9 0
-72 2 0
-72 6 0
-72 7 0
-72 8 0
-73 3 0
-73 7 0
-73 8 0
-73 9 0
-74 4 0
-74 8 0
-74 9 0
-74 10 0
69 70 71 72 73 74 0
-75 1 0
-75 2 0
-75 7 0
-75 8 0
-76 2 0
-76 3 0
-76 8 0
-76 9 0
-77 3 0
-77 4 0
-77 9 0
-77 10 0
-78 2 0
-78 3 0
-78 6 0
-78 7 0
-79 3 0
-79 4 0
-79 7 0
-79 8 0
-80 4 0
-80 5 0
-80 8 0
-80 9 0
75 76 77 78 79 80 0
-81 1 0
-81 2 0
-81 3 0
-81 6 0
-82 2 0
-82 3 0
-82 4 0
-82 7 0
-83 3 0
-83 4 0
-83 5 0
-83 8 0
-84 3 0
-84 6 0
-84 7 0
-84 8 0
-85 4 0
-85 7 0
-85 8 0
-85 9 0
-86 5 0
-86 8 0
-86 9 0
-86 10 0
-87 1 0
-87 2 0
-87 3 0
-87 8 0
-88 2 0
-88 3 0
-88 4 0
-88 9 0
-89 3 0
-89 4 0
-89 5 0
-89 10 0
-90 1 0
-90 6 0
-90 7 0
-90 8 0
-91 2 0
-91 7 0
-91 8 0
-91 9 0
-92 3 0
-92 8 0
-92 9 0
-92 10 0
81 82 83 84 85 86 87 88 89 90 91 92 0
