research/certificates/n4_2x5_k5.lrat
236 63 2 64 0 104 107 119 0
237 31 0 47 37 116 36 26 112 15 236 14 0
237 d 236 0
238 63 2 64 0 104 107 119 0
239 21 64 0 25 15 111 14 238 0
240 64 14 13 22 0 239 27 112 238 14 5 16 3 108 103 119 0
241 27 0 28 17 6 240 115 116 36 38 0
241 d 238 239 240 0
242 63 2 64 0 104 107 119 0
243 21 64 0 25 15 111 14 242 0
244 26 0 36 26 115 243 0
244 d 242 243 37 47 0
245 32 0 241 39 0
245 d 28 38 26 36 39 48 0
246 93 -87 0 0
247 93 -81 0 0
248 93 -65 0 0
249 93 -75 0 0
250 93 -69 0 0
251 93 -61 0 0
252 -93 87 81 65 75 69 61 0 -246 -247 -248 -249 -250 -251 0
253 1 -93 0 211 187 120 162 137 103 252 0
254 2 -93 0 212 188 121 163 138 104 252 0
254 d 252 211 212 187 188 120 121 162 163 137 138 103 104 0
255 94 -90 0 0
256 94 -84 0 0
257 94 -78 0 0
258 94 -72 0 0
259 94 -67 0 0
260 94 -61 0 0
261 -94 90 84 78 72 67 61 0 -255 -256 -257 -258 -259 -260 0
262 6 -94 0 224 200 176 150 128 105 261 0
263 7 -94 0 225 201 177 151 129 106 261 0
263 d 261 224 225 200 201 176 177 150 151 128 129 105 106 0
264 95 -89 0 0
265 95 -88 0 0
266 95 -83 0 0
267 95 -82 0 0
268 95 -79 0 0
269 95 -77 0 0
270 95 -71 0 0
271 95 -70 0 0
272 95 -66 0 0
273 95 -63 0 0
274 95 -65 0 0
275 -95 89 88 83 82 79 77 71 70 66 63 65 0 -264 -265 -266 -267 -268 -269 -270 -271 -272 -273 -274 0
276 3 -95 0 219 216 195 192 178 170 145 142 125 111 122 275 0
277 4 -95 0 220 217 196 193 179 171 146 143 126 112 123 275 0
277 d 275 219 220 216 217 195 196 192 193 178 179 170 171 145 146 142 143 125 126 111 112 122 123 0
278 96 -67 0 0
279 96 -92 0 0
280 96 -91 0 0
281 96 -86 0 0
282 96 -85 0 0
283 96 -80 0 0
284 96 -76 0 0
285 96 -74 0 0
286 96 -73 0 0
287 96 -68 0 0
288 96 -63 0 0
289 -96 67 92 91 86 85 80 76 74 73 68 63 0 -278 -279 -280 -281 -282 -283 -284 -285 -286 -287 -288 0
290 8 -96 0 130 232 229 208 205 184 168 158 155 133 113 289 0
291 9 -96 0 131 233 230 209 206 185 169 159 156 134 114 289 0
291 d 289 130 131 232 233 229 230 208 209 205 206 184 185 168 169 158 159 155 156 133 134 113 114 0
292 97 -88 0 0
293 97 -82 0 0
294 97 -70 0 0
295 97 -66 0 0
296 -97 88 82 70 66 0 -292 -293 -294 -295 0
297 2 -97 0 215 191 141 124 296 0
298 95 -97 0 265 267 271 272 296 0
298 d 296 215 265 191 267 141 271 124 272 0
299 98 -91 0 0
300 98 -85 0 0
301 98 -73 0 0
302 98 -68 0 0
303 -98 91 85 73 68 0 -299 -300 -301 -302 0
304 7 -98 0 228 204 154 132 303 0
305 96 -98 0 280 282 286 287 303 0
305 d 303 228 280 204 282 154 286 132 287 0
306 99 -79 0 0
307 99 -62 0 0
308 99 -75 0 0
309 -99 79 62 75 0 -306 -307 -308 0
310 7 -99 0 180 109 164 309 0
311 8 -99 0 181 110 165 309 0
311 d 309 180 181 109 110 164 165 0
312 100 -78 0 0
313 100 -76 0 0
314 100 -62 0 0
315 -100 78 76 62 0 -312 -313 -314 0
316 2 -100 0 174 166 107 315 0
317 3 -100 0 175 167 108 315 0
317 d 315 174 175 166 167 107 108 0
318 101 -87 0 0
319 101 -69 0 0
320 101 -81 0 0
321 -101 87 69 81 0 -318 -319 -320 0
322 3 -101 0 213 139 189 321 0
323 93 -101 0 246 250 247 321 0
323 d 321 213 246 139 250 189 247 0
324 102 -89 0 0
325 102 -71 0 0
326 102 -83 0 0
327 -102 89 71 83 0 -324 -325 -326 0
328 5 -102 0 221 147 197 327 0
329 95 -102 0 264 270 266 327 0
329 d 327 221 264 147 270 197 266 0
330 103 -90 0 0
331 103 -72 0 0
332 103 -84 0 0
333 -103 90 72 84 0 -330 -331 -332 0
334 8 -103 0 226 152 202 333 0
335 94 -103 0 255 258 256 333 0
335 d 333 226 255 152 258 202 256 0
336 104 -86 0 0
337 104 -74 0 0
338 104 -92 0 0
339 -104 86 74 92 0 -336 -337 -338 0
340 10 -104 0 210 160 234 339 0
341 96 -104 0 281 285 279 339 0
341 d 339 210 281 160 285 234 279 0
342 -1 12 0 4 3 0
343 -1 -2 13 0 5 3 0
343 d 3 4 5 0
344 14 -1 -2 0 343 6 0
345 -1 -2 15 -3 0 7 343 0
345 d 343 6 7 0
346 16 -1 -2 -3 0 345 8 0
347 17 -4 -1 -2 -3 0 345 9 0
347 d 345 8 9 0
348 18 -4 -1 -2 -3 0 347 10 0
349 -5 19 -4 -1 -2 -3 0 347 11 0
349 d 347 10 11 0
350 20 -5 -4 -1 -2 -3 0 349 12 0
351 -6 -5 -4 -1 -2 -3 0 349 13 0
351 d 349 12 13 0
352 -12 22 -4 0 27 15 0
353 -3 22 -4 0 27 25 0
353 d 27 15 25 0
354 -28 34 -8 0 50 41 0
355 34 -8 -7 0 245 49 50 0
355 d 50 41 49 0
356 -10 -30 0 45 52 0
357 -10 -9 -34 0 51 52 0
357 d 52 45 51 0
358 1 37 0 54 53 0
359 1 2 38 0 55 53 0
359 d 53 54 55 0
360 39 1 2 0 359 56 0
361 1 2 3 40 0 57 359 0
361 d 359 56 57 0
362 41 1 2 3 0 361 58 0
363 42 4 1 2 3 0 361 59 0
363 d 361 58 59 0
364 43 4 1 2 3 0 363 60 0
365 5 44 4 1 2 3 0 363 61 0
365 d 363 60 61 0
366 45 5 4 1 2 3 0 365 62 0
367 6 5 4 1 2 3 0 365 63 0
367 d 365 62 63 0
368 -51 57 6 0 98 87 0
369 5 57 6 0 98 97 0
369 d 98 87 97 0
370 -53 59 8 0 100 91 0
371 59 8 -57 7 0 99 100 0
371 d 100 91 99 0
372 10 -55 0 95 102 0
373 10 -59 9 0 101 102 0
373 d 102 95 101 0
374 93 63 64 62 0 119 251 0
375 94 63 64 62 0 119 260 0
375 d 119 251 260 0
376 93 66 68 67 0 136 248 0
377 95 66 68 67 0 136 274 0
377 d 136 248 274 0
378 7 74 70 72 73 71 0 161 140 0
379 101 74 70 72 73 71 0 161 319 0
379 d 161 140 319 0
380 93 76 77 78 79 80 0 186 249 0
381 99 76 77 78 79 80 0 186 308 0
381 d 186 249 308 0
382 6 92 88 82 85 83 84 87 86 89 90 91 0 235 190 0
383 101 92 88 82 85 83 84 87 86 89 90 91 0 235 320 0
383 d 235 190 320 0
384 -14 -5 23 0 29 17 0
385 -5 23 -12 -4 0 352 29 0
386 -5 23 -3 -4 0 353 29 0
386 d 29 17 352 353 0
387 -29 -10 -9 0 357 43 0
388 -10 -9 -28 -8 0 354 357 0
389 -10 -9 -8 -7 0 355 357 0
389 d 357 43 354 355 0
390 -52 59 8 7 0 371 89 0
391 -51 6 59 8 7 0 371 368 0
392 5 6 59 8 7 0 371 369 0
392 d 371 89 368 369 0
393 -2 14 -3 0 16 14 0
394 -2 -5 23 -4 0 385 14 0
395 -1 14 -3 0 16 342 0
396 -1 -5 23 -4 0 385 342 0
396 d 14 342 16 385 0
397 23 -14 -4 0 18 19 0
398 -14 -4 -5 18 0 20 18 0
399 23 -1 -2 -3 0 346 19 0
400 -5 18 -1 -2 -3 0 346 20 0
400 d 18 346 19 20 0
401 25 -6 -18 0 22 23 0
402 -7 -6 -18 0 22 24 0
403 25 -5 -4 -1 -2 -3 0 350 23 0
404 -7 -5 -4 -1 -2 -3 0 350 24 0
404 d 22 350 23 24 0
405 -18 29 0 32 21 0
406 -18 -7 25 0 33 21 0
407 29 -6 -23 0 31 32 0
408 -6 -23 -7 25 0 33 31 0
408 d 21 31 32 33 0
409 -23 -7 29 0 42 30 0
410 -23 -10 -9 -8 0 388 30 0
411 -6 -7 29 0 241 42 40 0
412 -6 -10 -9 -8 0 241 388 40 0
412 d 30 40 42 388 0
413 -25 -9 0 46 34 0
414 -25 -10 0 356 34 0
415 -9 -8 -29 0 44 46 0
416 -10 -8 -29 0 44 356 0
416 d 34 44 46 356 0
417 2 46 0 65 64 0
418 2 3 39 0 66 64 0
419 1 46 0 65 358 0
420 1 3 39 0 66 358 0
420 d 64 358 65 66 0
421 48 -39 4 0 68 69 0
422 -39 4 43 5 0 70 68 0
423 48 1 2 3 0 362 69 0
424 43 5 1 2 3 0 362 70 0
424 d 68 362 69 70 0
425 50 -43 6 0 72 73 0
426 7 -43 6 0 72 74 0
427 50 5 4 1 2 3 0 366 73 0
428 7 5 4 1 2 3 0 366 74 0
428 d 72 366 73 74 0
429 -39 52 0 78 67 0
430 -39 48 5 0 79 67 0
431 52 -46 4 0 77 78 0
432 -46 4 48 5 0 79 77 0
432 d 67 77 78 79 0
433 -43 54 0 82 71 0
434 -43 50 7 0 83 71 0
435 54 -48 6 0 81 82 0
436 -48 6 50 7 0 83 81 0
436 d 71 81 82 83 0
437 -46 52 5 0 88 76 0
438 -46 6 59 8 7 0 391 76 0
439 4 52 5 0 88 86 0
440 4 6 59 8 7 0 391 86 0
440 d 76 86 88 391 0
441 -48 54 7 0 92 80 0
442 -48 59 8 0 370 80 0
443 -52 6 54 7 0 92 90 0
444 -52 6 59 8 0 370 90 0
444 d 80 90 92 370 0
445 -50 9 0 96 84 0
446 -50 10 0 372 84 0
447 9 -54 8 0 94 96 0
448 10 -54 8 0 94 372 0
448 d 84 94 96 372 0
449 99 93 63 64 0 374 307 0
450 100 93 63 64 0 374 314 0
451 99 94 63 64 0 375 307 0
452 100 94 63 64 0 375 314 0
452 d 374 375 307 314 0
453 5 93 68 67 0 376 127 0
454 97 93 68 67 0 376 295 0
455 5 95 68 67 0 377 127 0
456 97 95 68 67 0 377 295 0
456 d 376 377 127 295 0
457 8 7 74 72 73 71 0 378 144 0
458 97 7 74 72 73 71 0 378 294 0
459 8 101 74 72 73 71 0 379 144 0
460 97 101 74 72 73 71 0 379 294 0
460 d 378 379 144 294 0
461 96 93 77 78 79 80 0 380 284 0
462 100 93 77 78 79 80 0 380 313 0
463 96 99 77 78 79 80 0 381 284 0
464 100 99 77 78 79 80 0 381 313 0
464 d 380 381 284 313 0
465 7 6 92 88 85 83 84 87 86 89 90 91 0 382 194 0
466 97 6 92 88 85 83 84 87 86 89 90 91 0 382 293 0
467 7 101 92 88 85 83 84 87 86 89 90 91 0 383 194 0
468 97 101 92 88 85 83 84 87 86 89 90 91 0 383 293 0
468 d 382 383 194 293 0
469 100 93 77 79 80 0 462 312 0
469 d 462 0
470 100 99 77 79 80 0 464 312 0
470 d 464 0
471 94 96 93 77 79 80 0 461 257 0
472 94 96 99 77 79 80 0 463 257 0
473 100 96 93 77 79 80 0 461 312 0
474 100 96 99 77 79 80 0 463 312 0
474 d 257 312 461 463 0
475 7 101 92 88 85 83 84 86 89 90 91 0 467 318 0
475 d 467 0
476 97 101 92 88 85 83 84 86 89 90 91 0 468 318 0
476 d 468 0
477 8 7 6 92 88 85 83 84 86 89 90 91 0 465 214 0
478 8 97 6 92 88 85 83 84 86 89 90 91 0 466 214 0
479 101 7 6 92 88 85 83 84 86 89 90 91 0 465 318 0
480 101 97 6 92 88 85 83 84 86 89 90 91 0 466 318 0
480 d 214 318 465 466 0
481 -54 10 9 0 373 93 0
482 10 9 -48 8 0 442 373 0
483 10 9 -52 8 7 0 390 373 0
484 10 9 -52 6 8 0 444 373 0
485 10 9 5 6 8 7 0 392 373 0
486 10 9 -46 6 8 7 0 438 373 0
487 10 9 4 6 8 7 0 440 373 0
487 d 373 93 442 390 444 392 438 440 0
488 100 99 77 80 0 470 306 0
488 d 470 0
489 94 96 99 77 80 0 472 306 0
489 d 472 0
490 8 7 6 92 88 85 84 86 89 90 91 0 477 198 0
490 d 477 0
491 8 97 6 92 88 85 84 86 89 90 91 0 478 198 0
491 d 478 0
492 8 7 101 92 88 85 84 86 89 90 91 0 475 198 0
493 8 97 101 92 88 85 84 86 89 90 91 0 476 198 0
494 8 101 7 6 92 88 85 84 86 89 90 91 0 479 198 0
495 8 101 97 6 92 88 85 84 86 89 90 91 0 480 198 0
496 102 7 101 92 88 85 84 86 89 90 91 0 475 326 0
497 102 97 101 92 88 85 84 86 89 90 91 0 476 326 0
498 102 101 7 6 92 88 85 84 86 89 90 91 0 479 326 0
499 102 101 97 6 92 88 85 84 86 89 90 91 0 480 326 0
499 d 198 326 475 476 479 480 494 495 498 499 0
500 8 97 6 92 85 84 86 89 90 91 0 491 292 0
500 d 491 0
501 8 97 101 92 85 84 86 89 90 91 0 493 292 0
501 d 493 0
502 -92 0 231 338 340 341 290 291 389 410 412 263 304 2 259 302 399 395 254 384 453 0
503 -88 -89 0 324 329 277 276 328 222 218 292 387 297 405 393 398 0
504 29 -102 0 329 276 328 277 386 405 407 398 2 395 0
505 -89 0 222 324 328 329 276 277 504 416 387 290 311 117 172 283 288 489 488 449 262 316 253 351 0
506 -10 2 -29 0 316 254 416 387 290 117 288 450 0
507 -96 -29 0 290 291 415 0
508 -9 14 -29 0 507 288 283 387 415 118 173 311 449 488 253 317 395 0
509 -100 14 0 316 317 393 0
510 14 -29 0 507 288 508 117 509 450 253 254 344 0
510 d 508 0
511 9 -2 100 -29 0 510 507 305 302 288 283 278 117 172 450 452 488 253 262 263 311 35 408 384 399 455 276 0
512 -9 100 -29 0 507 283 387 415 173 311 488 0
513 100 -29 0 507 288 512 117 511 450 254 0
513 d 512 511 0
514 -1 18 -29 0 513 317 316 507 305 302 278 400 348 455 277 0
515 18 -29 0 510 507 305 302 278 514 253 453 454 398 298 277 0
515 d 514 0
516 -6 -29 0 515 507 283 401 402 413 263 310 172 489 0
517 93 -29 0 516 2 513 317 316 507 305 302 288 278 453 454 298 277 403 404 413 310 117 449 0
518 -99 -18 0 310 311 406 35 0
519 -29 0 507 288 513 316 317 515 516 2 262 518 451 115 116 117 403 413 0
520 -18 0 519 405 0
521 -102 0 519 504 0
522 -71 0 521 325 0
523 -25 99 0 519 35 413 290 117 172 283 288 449 451 488 253 254 262 317 399 407 0
524 -94 0 519 262 263 411 0
525 -67 0 524 259 0
526 -103 0 524 335 0
527 -72 0 526 331 0
528 -84 0 526 332 0
529 8 -64 99 0 524 522 527 519 116 115 290 283 305 341 489 301 337 269 457 276 409 386 0
530 -64 99 0 115 116 117 118 529 410 412 396 2 0
530 d 529 0
531 23 99 0 524 530 451 288 291 290 273 277 276 397 386 509 395 183 2 488 412 173 0
532 64 99 0 527 522 520 519 524 451 273 288 276 277 290 291 531 407 409 410 2 304 340 348 301 337 297 458 0
532 d 451 0
533 99 0 530 532 0
534 7 0 533 310 0
535 8 0 533 311 0
536 -6 0 534 519 411 0
537 -23 0 534 519 409 0
538 -25 0 535 35 0
539 1 0 536 2 0
540 -4 0 537 539 524 397 396 509 395 116 276 452 273 0
541 -64 0 540 115 0
542 -74 0 540 157 0
543 -80 0 540 182 0
544 -85 0 540 203 0
545 -95 0 540 277 0
546 -79 0 545 268 0
547 -77 0 545 269 0
548 -63 0 545 273 0
549 -97 0 545 298 0
550 100 0 548 524 541 452 0
551 -88 0 549 292 0
552 68 0 549 545 525 456 0
553 2 0 550 316 0
554 3 0 550 317 0
555 14 0 550 509 0
556 10 0 552 135 0
557 98 0 552 302 0
558 0 553 554 537 539 399 0
